Nb of jobs, Nb of Machines, Time seed, Machine seed, Upper bound, Lower bound
3,10,-1,-1,-1,-1
Times
84,25,53,48,82,17,85,8,12,84
67,70,27,97,86,16,32,15,10,96
68,9,93,52,72,74,53,98,3,98
Machines
3,7,6,10,2,4,1,9,5,8
9,6,10,3,1,4,8,2,5,7
10,4,5,2,6,3,9,7,1,8
